(declare-fun cmp245.i.i_33_101 () (_ BitVec 1))
(declare-fun narrow_33_103 () (_ BitVec 1))
(declare-fun cmp241.not.i.i_33_100 () (_ BitVec 1))
(declare-fun i145.i.i_33_98 () (_ BitVec 64))
(declare-fun i139.i.i_33_97 () (_ BitVec 64))
(declare-fun i147.i.i_33_99 () (_ BitVec 64))
(declare-fun i137.i.i_33_96 () (_ BitVec 64))
(declare-fun src_reg_33_23 () (_ BitVec 64))
(declare-fun src_reg_33_22 () (_ BitVec 64))
(declare-fun dst_reg_33_5 () (_ BitVec 64))
(declare-fun dst_reg_33_4 () (_ BitVec 64))
(declare-fun i30.i32_33_95 () (_ BitVec 32))
(declare-fun src_reg_33_29 () (_ BitVec 32))
(declare-fun i29.i29_33_94 () (_ BitVec 32))
(declare-fun src_reg_33_28 () (_ BitVec 32))
(declare-fun i28.i26_33_93 () (_ BitVec 32))
(declare-fun src_reg_33_27 () (_ BitVec 32))
(declare-fun i27.i23_33_92 () (_ BitVec 32))
(declare-fun src_reg_33_26 () (_ BitVec 32))
(declare-fun i26.i20_33_91 () (_ BitVec 64))
(declare-fun src_reg_33_25 () (_ BitVec 64))
(declare-fun i25.i17_33_90 () (_ BitVec 64))
(declare-fun src_reg_33_24 () (_ BitVec 64))
(declare-fun i24.i14_33_89 () (_ BitVec 64))
(declare-fun i23.i11_33_88 () (_ BitVec 64))
(declare-fun i22.i8_33_87 () (_ BitVec 64))
(declare-fun src_reg_33_21 () (_ BitVec 64))
(declare-fun i21.i5_33_86 () (_ BitVec 64))
(declare-fun src_reg_33_20 () (_ BitVec 64))
(declare-fun i.i2_33_85 () (_ BitVec 32))
(declare-fun i30.i_33_84 () (_ BitVec 32))
(declare-fun dst_reg_33_11 () (_ BitVec 32))
(declare-fun i29.i_33_83 () (_ BitVec 32))
(declare-fun dst_reg_33_10 () (_ BitVec 32))
(declare-fun i28.i_33_82 () (_ BitVec 32))
(declare-fun dst_reg_33_9 () (_ BitVec 32))
(declare-fun i27.i_33_81 () (_ BitVec 32))
(declare-fun dst_reg_33_8 () (_ BitVec 32))
(declare-fun i26.i_33_80 () (_ BitVec 64))
(declare-fun dst_reg_33_7 () (_ BitVec 64))
(declare-fun i25.i_33_79 () (_ BitVec 64))
(declare-fun dst_reg_33_6 () (_ BitVec 64))
(declare-fun i24.i_33_78 () (_ BitVec 64))
(declare-fun i23.i_33_77 () (_ BitVec 64))
(declare-fun i22.i_33_76 () (_ BitVec 64))
(declare-fun dst_reg_33_3 () (_ BitVec 64))
(declare-fun i21.i_33_75 () (_ BitVec 64))
(declare-fun dst_reg_33_2 () (_ BitVec 64))
(declare-fun i.i_33_74 () (_ BitVec 32))
(declare-fun other_branch_src_reg_33_71 () (_ BitVec 8))
(declare-fun other_branch_src_reg_33_70 () (_ BitVec 32))
(declare-fun other_branch_src_reg_33_69 () (_ BitVec 32))
(declare-fun other_branch_src_reg_33_68 () (_ BitVec 32))
(declare-fun other_branch_src_reg_33_67 () (_ BitVec 32))
(declare-fun other_branch_src_reg_33_66 () (_ BitVec 32))
(declare-fun other_branch_src_reg_33_65 () (_ BitVec 32))
(declare-fun other_branch_src_reg_33_64 () (_ BitVec 32))
(declare-fun other_branch_src_reg_33_63 () (_ BitVec 32))
(declare-fun other_branch_src_reg_33_62 () (_ BitVec 32))
(declare-fun other_branch_src_reg_33_61 () (_ BitVec 64))
(declare-fun other_branch_src_reg_33_60 () (_ BitVec 64))
(declare-fun other_branch_src_reg_33_59 () (_ BitVec 64))
(declare-fun other_branch_src_reg_33_58 () (_ BitVec 64))
(declare-fun other_branch_src_reg_33_57 () (_ BitVec 64))
(declare-fun other_branch_src_reg_33_56 () (_ BitVec 64))
(declare-fun other_branch_src_reg_33_55 () (_ BitVec 32))
(declare-fun other_branch_src_reg_33_54 () (_ BitVec 32))
(declare-fun other_branch_dst_reg_33_53 () (_ BitVec 8))
(declare-fun other_branch_dst_reg_33_52 () (_ BitVec 32))
(declare-fun other_branch_dst_reg_33_51 () (_ BitVec 32))
(declare-fun other_branch_dst_reg_33_50 () (_ BitVec 32))
(declare-fun other_branch_dst_reg_33_49 () (_ BitVec 32))
(declare-fun other_branch_dst_reg_33_48 () (_ BitVec 32))
(declare-fun other_branch_dst_reg_33_47 () (_ BitVec 32))
(declare-fun other_branch_dst_reg_33_46 () (_ BitVec 32))
(declare-fun other_branch_dst_reg_33_45 () (_ BitVec 32))
(declare-fun other_branch_dst_reg_33_44 () (_ BitVec 32))
(declare-fun other_branch_dst_reg_33_43 () (_ BitVec 64))
(declare-fun other_branch_dst_reg_33_42 () (_ BitVec 64))
(declare-fun other_branch_dst_reg_33_41 () (_ BitVec 64))
(declare-fun other_branch_dst_reg_33_40 () (_ BitVec 64))
(declare-fun other_branch_dst_reg_33_39 () (_ BitVec 64))
(declare-fun other_branch_dst_reg_33_38 () (_ BitVec 64))
(declare-fun other_branch_dst_reg_33_37 () (_ BitVec 32))
(declare-fun other_branch_dst_reg_33_36 () (_ BitVec 32))
(declare-fun src_reg_33_35 () (_ BitVec 8))
(declare-fun src_reg_33_34 () (_ BitVec 32))
(declare-fun src_reg_33_33 () (_ BitVec 32))
(declare-fun src_reg_33_32 () (_ BitVec 32))
(declare-fun src_reg_33_31 () (_ BitVec 32))
(declare-fun src_reg_33_30 () (_ BitVec 32))
(declare-fun src_reg_33_19 () (_ BitVec 32))
(declare-fun src_reg_33_18 () (_ BitVec 32))
(declare-fun dst_reg_33_17 () (_ BitVec 8))
(declare-fun dst_reg_33_16 () (_ BitVec 32))
(declare-fun dst_reg_33_15 () (_ BitVec 32))
(declare-fun dst_reg_33_14 () (_ BitVec 32))
(declare-fun dst_reg_33_13 () (_ BitVec 32))
(declare-fun dst_reg_33_12 () (_ BitVec 32))
(declare-fun dst_reg_33_1 () (_ BitVec 32))
(declare-fun dst_reg_33_0 () (_ BitVec 32))
(declare-fun cmp.not.i_33_106 () (_ BitVec 1))
(declare-fun i.i35_33_104 () (_ BitVec 32))
(declare-fun cmp2.not.i_33_109 () (_ BitVec 1))
(declare-fun i1.i_33_107 () (_ BitVec 32))
(declare-fun i369.i551.i_33_124 () (_ BitVec 64))
(declare-fun cond392.i553.i_33_126 () (_ BitVec 64))
(declare-fun i368.i549.i_33_123 () (_ BitVec 64))
(declare-fun cmp387.i552.i_33_125 () (_ BitVec 1))
(declare-fun i367.i545.i_33_120 () (_ BitVec 64))
(declare-fun cond382.i547.i_33_122 () (_ BitVec 64))
(declare-fun i366.i543.i_33_119 () (_ BitVec 64))
(declare-fun cmp377.i546.i_33_121 () (_ BitVec 1))
(declare-fun i377.i.i_33_116 () (_ BitVec 64))
(declare-fun cond441.i.i_33_118 () (_ BitVec 64))
(declare-fun add433.i.i_33_115 () (_ BitVec 64))
(declare-fun cmp436.i.i_33_117 () (_ BitVec 1))
(declare-fun sub423.i.i_33_111 () (_ BitVec 64))
(declare-fun cond430.i.i_33_113 () (_ BitVec 64))
(declare-fun cmp425.i.i_33_112 () (_ BitVec 1))
(declare-fun other_branch_src_reg_33_270 () (_ BitVec 8))
(declare-fun other_branch_src_reg_33_198 () (_ BitVec 8))
(declare-fun other_branch_src_reg_33_269 () (_ BitVec 32))
(declare-fun other_branch_src_reg_33_197 () (_ BitVec 32))
(declare-fun other_branch_src_reg_33_268 () (_ BitVec 32))
(declare-fun other_branch_src_reg_33_196 () (_ BitVec 32))
(declare-fun other_branch_src_reg_33_267 () (_ BitVec 32))
(declare-fun other_branch_src_reg_33_195 () (_ BitVec 32))
(declare-fun other_branch_src_reg_33_266 () (_ BitVec 32))
(declare-fun other_branch_src_reg_33_194 () (_ BitVec 32))
(declare-fun other_branch_src_reg_33_265 () (_ BitVec 32))
(declare-fun other_branch_src_reg_33_193 () (_ BitVec 32))
(declare-fun other_branch_src_reg_33_264 () (_ BitVec 32))
(declare-fun other_branch_src_reg_33_192 () (_ BitVec 32))
(declare-fun other_branch_src_reg_33_263 () (_ BitVec 32))
(declare-fun other_branch_src_reg_33_191 () (_ BitVec 32))
(declare-fun other_branch_src_reg_33_262 () (_ BitVec 32))
(declare-fun other_branch_src_reg_33_190 () (_ BitVec 32))
(declare-fun other_branch_src_reg_33_261 () (_ BitVec 32))
(declare-fun other_branch_src_reg_33_189 () (_ BitVec 32))
(declare-fun other_branch_src_reg_33_260 () (_ BitVec 64))
(declare-fun other_branch_src_reg_33_188 () (_ BitVec 64))
(declare-fun other_branch_src_reg_33_259 () (_ BitVec 64))
(declare-fun other_branch_src_reg_33_187 () (_ BitVec 64))
(declare-fun other_branch_src_reg_33_258 () (_ BitVec 64))
(declare-fun other_branch_src_reg_33_186 () (_ BitVec 64))
(declare-fun other_branch_src_reg_33_257 () (_ BitVec 64))
(declare-fun other_branch_src_reg_33_185 () (_ BitVec 64))
(declare-fun other_branch_src_reg_33_256 () (_ BitVec 64))
(declare-fun other_branch_src_reg_33_184 () (_ BitVec 64))
(declare-fun other_branch_src_reg_33_255 () (_ BitVec 64))
(declare-fun other_branch_src_reg_33_183 () (_ BitVec 64))
(declare-fun other_branch_src_reg_33_254 () (_ BitVec 32))
(declare-fun other_branch_src_reg_33_182 () (_ BitVec 32))
(declare-fun other_branch_src_reg_33_253 () (_ BitVec 32))
(declare-fun other_branch_src_reg_33_181 () (_ BitVec 32))
(declare-fun other_branch_dst_reg_33_252 () (_ BitVec 8))
(declare-fun other_branch_dst_reg_33_180 () (_ BitVec 8))
(declare-fun other_branch_dst_reg_33_251 () (_ BitVec 32))
(declare-fun other_branch_dst_reg_33_179 () (_ BitVec 32))
(declare-fun other_branch_dst_reg_33_250 () (_ BitVec 32))
(declare-fun other_branch_dst_reg_33_178 () (_ BitVec 32))
(declare-fun other_branch_dst_reg_33_249 () (_ BitVec 32))
(declare-fun other_branch_dst_reg_33_177 () (_ BitVec 32))
(declare-fun other_branch_dst_reg_33_248 () (_ BitVec 32))
(declare-fun other_branch_dst_reg_33_176 () (_ BitVec 32))
(declare-fun other_branch_dst_reg_33_247 () (_ BitVec 32))
(declare-fun other_branch_dst_reg_33_175 () (_ BitVec 32))
(declare-fun other_branch_dst_reg_33_246 () (_ BitVec 32))
(declare-fun other_branch_dst_reg_33_174 () (_ BitVec 32))
(declare-fun other_branch_dst_reg_33_245 () (_ BitVec 32))
(declare-fun other_branch_dst_reg_33_173 () (_ BitVec 32))
(declare-fun other_branch_dst_reg_33_244 () (_ BitVec 32))
(declare-fun other_branch_dst_reg_33_172 () (_ BitVec 32))
(declare-fun other_branch_dst_reg_33_243 () (_ BitVec 32))
(declare-fun other_branch_dst_reg_33_171 () (_ BitVec 32))
(declare-fun other_branch_dst_reg_33_242 () (_ BitVec 64))
(declare-fun other_branch_dst_reg_33_170 () (_ BitVec 64))
(declare-fun other_branch_dst_reg_33_241 () (_ BitVec 64))
(declare-fun other_branch_dst_reg_33_169 () (_ BitVec 64))
(declare-fun other_branch_dst_reg_33_240 () (_ BitVec 64))
(declare-fun other_branch_dst_reg_33_168 () (_ BitVec 64))
(declare-fun other_branch_dst_reg_33_239 () (_ BitVec 64))
(declare-fun other_branch_dst_reg_33_167 () (_ BitVec 64))
(declare-fun other_branch_dst_reg_33_238 () (_ BitVec 64))
(declare-fun other_branch_dst_reg_33_166 () (_ BitVec 64))
(declare-fun other_branch_dst_reg_33_237 () (_ BitVec 64))
(declare-fun other_branch_dst_reg_33_165 () (_ BitVec 64))
(declare-fun other_branch_dst_reg_33_236 () (_ BitVec 32))
(declare-fun other_branch_dst_reg_33_164 () (_ BitVec 32))
(declare-fun other_branch_dst_reg_33_235 () (_ BitVec 32))
(declare-fun other_branch_dst_reg_33_163 () (_ BitVec 32))
(declare-fun src_reg_33_234 () (_ BitVec 8))
(declare-fun src_reg_33_162 () (_ BitVec 8))
(declare-fun src_reg_33_233 () (_ BitVec 32))
(declare-fun src_reg_33_161 () (_ BitVec 32))
(declare-fun src_reg_33_232 () (_ BitVec 32))
(declare-fun src_reg_33_160 () (_ BitVec 32))
(declare-fun src_reg_33_231 () (_ BitVec 32))
(declare-fun src_reg_33_159 () (_ BitVec 32))
(declare-fun src_reg_33_230 () (_ BitVec 32))
(declare-fun src_reg_33_158 () (_ BitVec 32))
(declare-fun src_reg_33_229 () (_ BitVec 32))
(declare-fun src_reg_33_157 () (_ BitVec 32))
(declare-fun src_reg_33_228 () (_ BitVec 32))
(declare-fun src_reg_33_156 () (_ BitVec 32))
(declare-fun src_reg_33_227 () (_ BitVec 32))
(declare-fun src_reg_33_155 () (_ BitVec 32))
(declare-fun src_reg_33_226 () (_ BitVec 32))
(declare-fun src_reg_33_154 () (_ BitVec 32))
(declare-fun src_reg_33_225 () (_ BitVec 32))
(declare-fun src_reg_33_153 () (_ BitVec 32))
(declare-fun src_reg_33_224 () (_ BitVec 64))
(declare-fun src_reg_33_152 () (_ BitVec 64))
(declare-fun src_reg_33_223 () (_ BitVec 64))
(declare-fun src_reg_33_151 () (_ BitVec 64))
(declare-fun src_reg_33_222 () (_ BitVec 64))
(declare-fun src_reg_33_150 () (_ BitVec 64))
(declare-fun src_reg_33_221 () (_ BitVec 64))
(declare-fun src_reg_33_149 () (_ BitVec 64))
(declare-fun src_reg_33_220 () (_ BitVec 64))
(declare-fun src_reg_33_148 () (_ BitVec 64))
(declare-fun src_reg_33_219 () (_ BitVec 64))
(declare-fun src_reg_33_147 () (_ BitVec 64))
(declare-fun src_reg_33_218 () (_ BitVec 32))
(declare-fun src_reg_33_146 () (_ BitVec 32))
(declare-fun src_reg_33_217 () (_ BitVec 32))
(declare-fun src_reg_33_145 () (_ BitVec 32))
(declare-fun dst_reg_33_216 () (_ BitVec 8))
(declare-fun dst_reg_33_144 () (_ BitVec 8))
(declare-fun dst_reg_33_215 () (_ BitVec 32))
(declare-fun dst_reg_33_143 () (_ BitVec 32))
(declare-fun dst_reg_33_214 () (_ BitVec 32))
(declare-fun dst_reg_33_142 () (_ BitVec 32))
(declare-fun dst_reg_33_213 () (_ BitVec 32))
(declare-fun dst_reg_33_141 () (_ BitVec 32))
(declare-fun dst_reg_33_212 () (_ BitVec 32))
(declare-fun dst_reg_33_140 () (_ BitVec 32))
(declare-fun dst_reg_33_211 () (_ BitVec 32))
(declare-fun dst_reg_33_139 () (_ BitVec 32))
(declare-fun dst_reg_33_210 () (_ BitVec 32))
(declare-fun dst_reg_33_138 () (_ BitVec 32))
(declare-fun dst_reg_33_209 () (_ BitVec 32))
(declare-fun dst_reg_33_137 () (_ BitVec 32))
(declare-fun dst_reg_33_208 () (_ BitVec 32))
(declare-fun dst_reg_33_136 () (_ BitVec 32))
(declare-fun dst_reg_33_207 () (_ BitVec 32))
(declare-fun dst_reg_33_135 () (_ BitVec 32))
(declare-fun dst_reg_33_206 () (_ BitVec 64))
(declare-fun dst_reg_33_134 () (_ BitVec 64))
(declare-fun dst_reg_33_205 () (_ BitVec 64))
(declare-fun dst_reg_33_133 () (_ BitVec 64))
(declare-fun dst_reg_33_204 () (_ BitVec 64))
(declare-fun dst_reg_33_132 () (_ BitVec 64))
(declare-fun dst_reg_33_203 () (_ BitVec 64))
(declare-fun dst_reg_33_131 () (_ BitVec 64))
(declare-fun dst_reg_33_202 () (_ BitVec 64))
(declare-fun dst_reg_33_130 () (_ BitVec 64))
(declare-fun dst_reg_33_201 () (_ BitVec 64))
(declare-fun dst_reg_33_129 () (_ BitVec 64))
(declare-fun dst_reg_33_200 () (_ BitVec 32))
(declare-fun dst_reg_33_128 () (_ BitVec 32))
(declare-fun dst_reg_33_199 () (_ BitVec 32))
(declare-fun dst_reg_33_127 () (_ BitVec 32))
(assert (let ((a!1 (and (= cmp2.not.i_33_109 #b1)
                (and (= cmp.not.i_33_106 #b1) (= narrow_33_103 #b0))))
      (a!2 (and (= cmp2.not.i_33_109 #b0)
                (and (= cmp.not.i_33_106 #b1) (= narrow_33_103 #b0))))
      (a!3 (and (= i.i2_33_85 other_branch_src_reg_33_181)
                (= other_branch_src_reg_33_55 other_branch_src_reg_33_182)
                (= i21.i5_33_86 other_branch_src_reg_33_183)
                (= i22.i8_33_87 other_branch_src_reg_33_184)
                (= i23.i11_33_88 other_branch_src_reg_33_185)
                (= i24.i14_33_89 other_branch_src_reg_33_186)
                (= i25.i17_33_90 other_branch_src_reg_33_187)
                (= i26.i20_33_91 other_branch_src_reg_33_188)
                (= i27.i23_33_92 other_branch_src_reg_33_189)
                (= i28.i26_33_93 other_branch_src_reg_33_190)
                (= i29.i29_33_94 other_branch_src_reg_33_191)
                (= i30.i32_33_95 other_branch_src_reg_33_192)
                (= other_branch_src_reg_33_66 other_branch_src_reg_33_193)
                (= other_branch_src_reg_33_67 other_branch_src_reg_33_194)
                (= other_branch_src_reg_33_68 other_branch_src_reg_33_195)
                (= other_branch_src_reg_33_69 other_branch_src_reg_33_196)
                (= other_branch_src_reg_33_70 other_branch_src_reg_33_197)
                (= other_branch_src_reg_33_71 other_branch_src_reg_33_198)
                (= i.i_33_74 other_branch_dst_reg_33_163)
                (= other_branch_dst_reg_33_37 other_branch_dst_reg_33_164)
                (= i21.i_33_75 other_branch_dst_reg_33_165)
                (= i22.i_33_76 other_branch_dst_reg_33_166)
                (= i23.i_33_77 other_branch_dst_reg_33_167)
                (= i24.i_33_78 other_branch_dst_reg_33_168)
                (= i25.i_33_79 other_branch_dst_reg_33_169)
                (= i26.i_33_80 other_branch_dst_reg_33_170)
                (= i27.i_33_81 other_branch_dst_reg_33_171)
                (= i28.i_33_82 other_branch_dst_reg_33_172)
                (= i29.i_33_83 other_branch_dst_reg_33_173)
                (= i30.i_33_84 other_branch_dst_reg_33_174)
                (= other_branch_dst_reg_33_48 other_branch_dst_reg_33_175)
                (= other_branch_dst_reg_33_49 other_branch_dst_reg_33_176)
                (= other_branch_dst_reg_33_50 other_branch_dst_reg_33_177)
                (= other_branch_dst_reg_33_51 other_branch_dst_reg_33_178)
                (= other_branch_dst_reg_33_52 other_branch_dst_reg_33_179)
                (= other_branch_dst_reg_33_53 other_branch_dst_reg_33_180)
                (= #x00000001 src_reg_33_145)
                (= src_reg_33_19 src_reg_33_146)
                (= src_reg_33_20 src_reg_33_147)
                (= src_reg_33_21 src_reg_33_148)
                (= src_reg_33_22 src_reg_33_149)
                (= src_reg_33_23 src_reg_33_150)
                (= src_reg_33_24 src_reg_33_151)
                (= src_reg_33_25 src_reg_33_152)
                (= src_reg_33_26 src_reg_33_153)
                (= src_reg_33_27 src_reg_33_154)
                (= src_reg_33_28 src_reg_33_155)
                (= src_reg_33_29 src_reg_33_156)
                (= src_reg_33_30 src_reg_33_157)
                (= src_reg_33_31 src_reg_33_158)
                (= src_reg_33_32 src_reg_33_159)
                (= src_reg_33_33 src_reg_33_160)
                (= src_reg_33_34 src_reg_33_161)
                (= src_reg_33_35 src_reg_33_162)
                (= #x00000001 dst_reg_33_127)
                (= dst_reg_33_1 dst_reg_33_128)
                (= dst_reg_33_2 dst_reg_33_129)
                (= dst_reg_33_3 dst_reg_33_130)
                (= dst_reg_33_4 dst_reg_33_131)
                (= dst_reg_33_5 dst_reg_33_132)
                (= dst_reg_33_6 dst_reg_33_133)
                (= dst_reg_33_7 dst_reg_33_134)
                (= dst_reg_33_8 dst_reg_33_135)
                (= dst_reg_33_9 dst_reg_33_136)
                (= dst_reg_33_10 dst_reg_33_137)
                (= dst_reg_33_11 dst_reg_33_138)
                (= dst_reg_33_12 dst_reg_33_139)
                (= dst_reg_33_13 dst_reg_33_140)
                (= dst_reg_33_14 dst_reg_33_141)
                (= dst_reg_33_15 dst_reg_33_142)
                (= dst_reg_33_16 dst_reg_33_143)
                (= dst_reg_33_17 dst_reg_33_144)))
      (a!7 (=> (and (= cmp.not.i_33_106 #b1) (= narrow_33_103 #b0))
               (and (= #x00000001 i1.i_33_107)
                    (ite (= i1.i_33_107 #x00000001)
                         (= cmp2.not.i_33_109 #b1)
                         (= cmp2.not.i_33_109 #b0)))))
      (a!8 (=> (= narrow_33_103 #b0)
               (and (= #x00000001 i.i35_33_104)
                    (ite (= i.i35_33_104 #x00000001)
                         (= cmp.not.i_33_106 #b1)
                         (= cmp.not.i_33_106 #b0))))))
(let ((a!4 (and (=> (= narrow_33_103 #b1) a!3)
                (=> (and (= cmp.not.i_33_106 #b0) (= narrow_33_103 #b0)) a!3)
                (=> a!2 a!3)
                (=> a!1
                    (and (= i.i2_33_85 other_branch_src_reg_33_181)
                         (= other_branch_src_reg_33_55
                            other_branch_src_reg_33_182)
                         (= i21.i5_33_86 other_branch_src_reg_33_183)
                         (= i22.i8_33_87 other_branch_src_reg_33_184)
                         (= i23.i11_33_88 other_branch_src_reg_33_185)
                         (= cond382.i547.i_33_122 other_branch_src_reg_33_186)
                         (= i25.i17_33_90 other_branch_src_reg_33_187)
                         (= i26.i20_33_91 other_branch_src_reg_33_188)
                         (= i27.i23_33_92 other_branch_src_reg_33_189)
                         (= i28.i26_33_93 other_branch_src_reg_33_190)
                         (= i29.i29_33_94 other_branch_src_reg_33_191)
                         (= i30.i32_33_95 other_branch_src_reg_33_192)
                         (= other_branch_src_reg_33_66
                            other_branch_src_reg_33_193)
                         (= other_branch_src_reg_33_67
                            other_branch_src_reg_33_194)
                         (= other_branch_src_reg_33_68
                            other_branch_src_reg_33_195)
                         (= other_branch_src_reg_33_69
                            other_branch_src_reg_33_196)
                         (= other_branch_src_reg_33_70
                            other_branch_src_reg_33_197)
                         (= other_branch_src_reg_33_71
                            other_branch_src_reg_33_198)
                         (= i.i_33_74 other_branch_dst_reg_33_163)
                         (= other_branch_dst_reg_33_37
                            other_branch_dst_reg_33_164)
                         (= i21.i_33_75 other_branch_dst_reg_33_165)
                         (= i22.i_33_76 other_branch_dst_reg_33_166)
                         (= cond392.i553.i_33_126 other_branch_dst_reg_33_167)
                         (= i24.i_33_78 other_branch_dst_reg_33_168)
                         (= i25.i_33_79 other_branch_dst_reg_33_169)
                         (= i26.i_33_80 other_branch_dst_reg_33_170)
                         (= i27.i_33_81 other_branch_dst_reg_33_171)
                         (= i28.i_33_82 other_branch_dst_reg_33_172)
                         (= i29.i_33_83 other_branch_dst_reg_33_173)
                         (= i30.i_33_84 other_branch_dst_reg_33_174)
                         (= other_branch_dst_reg_33_48
                            other_branch_dst_reg_33_175)
                         (= other_branch_dst_reg_33_49
                            other_branch_dst_reg_33_176)
                         (= other_branch_dst_reg_33_50
                            other_branch_dst_reg_33_177)
                         (= other_branch_dst_reg_33_51
                            other_branch_dst_reg_33_178)
                         (= other_branch_dst_reg_33_52
                            other_branch_dst_reg_33_179)
                         (= other_branch_dst_reg_33_53
                            other_branch_dst_reg_33_180)
                         (= #x00000001 src_reg_33_145)
                         (= src_reg_33_19 src_reg_33_146)
                         (= src_reg_33_20 src_reg_33_147)
                         (= src_reg_33_21 src_reg_33_148)
                         (= cond441.i.i_33_118 src_reg_33_149)
                         (= src_reg_33_23 src_reg_33_150)
                         (= src_reg_33_24 src_reg_33_151)
                         (= src_reg_33_25 src_reg_33_152)
                         (= src_reg_33_26 src_reg_33_153)
                         (= src_reg_33_27 src_reg_33_154)
                         (= src_reg_33_28 src_reg_33_155)
                         (= src_reg_33_29 src_reg_33_156)
                         (= src_reg_33_30 src_reg_33_157)
                         (= src_reg_33_31 src_reg_33_158)
                         (= src_reg_33_32 src_reg_33_159)
                         (= src_reg_33_33 src_reg_33_160)
                         (= src_reg_33_34 src_reg_33_161)
                         (= src_reg_33_35 src_reg_33_162)
                         (= #x00000001 dst_reg_33_127)
                         (= dst_reg_33_1 dst_reg_33_128)
                         (= dst_reg_33_2 dst_reg_33_129)
                         (= dst_reg_33_3 dst_reg_33_130)
                         (= dst_reg_33_4 dst_reg_33_131)
                         (= cond430.i.i_33_113 dst_reg_33_132)
                         (= dst_reg_33_6 dst_reg_33_133)
                         (= dst_reg_33_7 dst_reg_33_134)
                         (= dst_reg_33_8 dst_reg_33_135)
                         (= dst_reg_33_9 dst_reg_33_136)
                         (= dst_reg_33_10 dst_reg_33_137)
                         (= dst_reg_33_11 dst_reg_33_138)
                         (= dst_reg_33_12 dst_reg_33_139)
                         (= dst_reg_33_13 dst_reg_33_140)
                         (= dst_reg_33_14 dst_reg_33_141)
                         (= dst_reg_33_15 dst_reg_33_142)
                         (= dst_reg_33_16 dst_reg_33_143)
                         (= dst_reg_33_17 dst_reg_33_144)))
                (= dst_reg_33_127 dst_reg_33_199)
                (= dst_reg_33_128 dst_reg_33_200)
                (= dst_reg_33_129 dst_reg_33_201)
                (= dst_reg_33_130 dst_reg_33_202)
                (= dst_reg_33_131 dst_reg_33_203)
                (= dst_reg_33_132 dst_reg_33_204)
                (= dst_reg_33_133 dst_reg_33_205)
                (= dst_reg_33_134 dst_reg_33_206)
                (= dst_reg_33_135 dst_reg_33_207)
                (= dst_reg_33_136 dst_reg_33_208)
                (= dst_reg_33_137 dst_reg_33_209)
                (= dst_reg_33_138 dst_reg_33_210)
                (= dst_reg_33_139 dst_reg_33_211)
                (= dst_reg_33_140 dst_reg_33_212)
                (= dst_reg_33_141 dst_reg_33_213)
                (= dst_reg_33_142 dst_reg_33_214)
                (= dst_reg_33_143 dst_reg_33_215)
                (= dst_reg_33_144 dst_reg_33_216)
                (= src_reg_33_145 src_reg_33_217)
                (= src_reg_33_146 src_reg_33_218)
                (= src_reg_33_147 src_reg_33_219)
                (= src_reg_33_148 src_reg_33_220)
                (= src_reg_33_149 src_reg_33_221)
                (= src_reg_33_150 src_reg_33_222)
                (= src_reg_33_151 src_reg_33_223)
                (= src_reg_33_152 src_reg_33_224)
                (= src_reg_33_153 src_reg_33_225)
                (= src_reg_33_154 src_reg_33_226)
                (= src_reg_33_155 src_reg_33_227)
                (= src_reg_33_156 src_reg_33_228)
                (= src_reg_33_157 src_reg_33_229)
                (= src_reg_33_158 src_reg_33_230)
                (= src_reg_33_159 src_reg_33_231)
                (= src_reg_33_160 src_reg_33_232)
                (= src_reg_33_161 src_reg_33_233)
                (= src_reg_33_162 src_reg_33_234)
                (= other_branch_dst_reg_33_163 other_branch_dst_reg_33_235)
                (= other_branch_dst_reg_33_164 other_branch_dst_reg_33_236)
                (= other_branch_dst_reg_33_165 other_branch_dst_reg_33_237)
                (= other_branch_dst_reg_33_166 other_branch_dst_reg_33_238)
                (= other_branch_dst_reg_33_167 other_branch_dst_reg_33_239)
                (= other_branch_dst_reg_33_168 other_branch_dst_reg_33_240)
                (= other_branch_dst_reg_33_169 other_branch_dst_reg_33_241)
                (= other_branch_dst_reg_33_170 other_branch_dst_reg_33_242)
                (= other_branch_dst_reg_33_171 other_branch_dst_reg_33_243)
                (= other_branch_dst_reg_33_172 other_branch_dst_reg_33_244)
                (= other_branch_dst_reg_33_173 other_branch_dst_reg_33_245)
                (= other_branch_dst_reg_33_174 other_branch_dst_reg_33_246)
                (= other_branch_dst_reg_33_175 other_branch_dst_reg_33_247)
                (= other_branch_dst_reg_33_176 other_branch_dst_reg_33_248)
                (= other_branch_dst_reg_33_177 other_branch_dst_reg_33_249)
                (= other_branch_dst_reg_33_178 other_branch_dst_reg_33_250)
                (= other_branch_dst_reg_33_179 other_branch_dst_reg_33_251)
                (= other_branch_dst_reg_33_180 other_branch_dst_reg_33_252)
                (= other_branch_src_reg_33_181 other_branch_src_reg_33_253)
                (= other_branch_src_reg_33_182 other_branch_src_reg_33_254)
                (= other_branch_src_reg_33_183 other_branch_src_reg_33_255)
                (= other_branch_src_reg_33_184 other_branch_src_reg_33_256)
                (= other_branch_src_reg_33_185 other_branch_src_reg_33_257)
                (= other_branch_src_reg_33_186 other_branch_src_reg_33_258)
                (= other_branch_src_reg_33_187 other_branch_src_reg_33_259)
                (= other_branch_src_reg_33_188 other_branch_src_reg_33_260)
                (= other_branch_src_reg_33_189 other_branch_src_reg_33_261)
                (= other_branch_src_reg_33_190 other_branch_src_reg_33_262)
                (= other_branch_src_reg_33_191 other_branch_src_reg_33_263)
                (= other_branch_src_reg_33_192 other_branch_src_reg_33_264)
                (= other_branch_src_reg_33_193 other_branch_src_reg_33_265)
                (= other_branch_src_reg_33_194 other_branch_src_reg_33_266)
                (= other_branch_src_reg_33_195 other_branch_src_reg_33_267)
                (= other_branch_src_reg_33_196 other_branch_src_reg_33_268)
                (= other_branch_src_reg_33_197 other_branch_src_reg_33_269)
                (= other_branch_src_reg_33_198 other_branch_src_reg_33_270)))
      (a!6 (=> a!1
               (and (= sub423.i.i_33_111
                       (bvadd i147.i.i_33_99 #xffffffffffffffff))
                    (ite (bvslt i139.i.i_33_97 sub423.i.i_33_111)
                         (= cmp425.i.i_33_112 #b1)
                         (= cmp425.i.i_33_112 #b0))
                    (ite (= cmp425.i.i_33_112 #b1)
                         (= cond430.i.i_33_113 i139.i.i_33_97)
                         (= cond430.i.i_33_113 sub423.i.i_33_111))
                    (= add433.i.i_33_115
                       (bvadd i137.i.i_33_96 #x0000000000000001))
                    (= src_reg_33_22 i377.i.i_33_116)
                    (ite (bvsgt add433.i.i_33_115 i377.i.i_33_116)
                         (= cmp436.i.i_33_117 #b1)
                         (= cmp436.i.i_33_117 #b0))
                    (ite (= cmp436.i.i_33_117 #b1)
                         (= cond441.i.i_33_118 add433.i.i_33_115)
                         (= cond441.i.i_33_118 i377.i.i_33_116))
                    (= i24.i14_33_89 i366.i543.i_33_119)
                    (= i24.i_33_78 i367.i545.i_33_120)
                    (ite (bvslt i366.i543.i_33_119 i367.i545.i_33_120)
                         (= cmp377.i546.i_33_121 #b1)
                         (= cmp377.i546.i_33_121 #b0))
                    (ite (= cmp377.i546.i_33_121 #b1)
                         (= cond382.i547.i_33_122 i366.i543.i_33_119)
                         (= cond382.i547.i_33_122 i367.i545.i_33_120))
                    (= i23.i11_33_88 i368.i549.i_33_123)
                    (= i23.i_33_77 i369.i551.i_33_124)
                    (ite (bvsgt i368.i549.i_33_123 i369.i551.i_33_124)
                         (= cmp387.i552.i_33_125 #b1)
                         (= cmp387.i552.i_33_125 #b0))
                    (ite (= cmp387.i552.i_33_125 #b1)
                         (= cond392.i553.i_33_126 i368.i549.i_33_123)
                         (= cond392.i553.i_33_126 i369.i551.i_33_124))))))
(let ((a!5 (=> (or a!1
                   a!2
                   (and (= cmp.not.i_33_106 #b0) (= narrow_33_103 #b0))
                   (= narrow_33_103 #b1))
               a!4)))
  (and a!5
       a!6
       a!7
       a!8
       (= dst_reg_33_0 dst_reg_33_0)
       (= dst_reg_33_1 dst_reg_33_1)
       (= dst_reg_33_2 dst_reg_33_2)
       (= dst_reg_33_3 dst_reg_33_3)
       (= dst_reg_33_4 dst_reg_33_4)
       (= dst_reg_33_5 dst_reg_33_5)
       (= dst_reg_33_6 dst_reg_33_6)
       (= dst_reg_33_7 dst_reg_33_7)
       (= dst_reg_33_8 dst_reg_33_8)
       (= dst_reg_33_9 dst_reg_33_9)
       (= dst_reg_33_10 dst_reg_33_10)
       (= dst_reg_33_11 dst_reg_33_11)
       (= dst_reg_33_12 dst_reg_33_12)
       (= dst_reg_33_13 dst_reg_33_13)
       (= dst_reg_33_14 dst_reg_33_14)
       (= dst_reg_33_15 dst_reg_33_15)
       (= dst_reg_33_16 dst_reg_33_16)
       (= dst_reg_33_17 dst_reg_33_17)
       (= src_reg_33_18 src_reg_33_18)
       (= src_reg_33_19 src_reg_33_19)
       (= src_reg_33_20 src_reg_33_20)
       (= src_reg_33_21 src_reg_33_21)
       (= src_reg_33_22 src_reg_33_22)
       (= src_reg_33_23 src_reg_33_23)
       (= src_reg_33_24 src_reg_33_24)
       (= src_reg_33_25 src_reg_33_25)
       (= src_reg_33_26 src_reg_33_26)
       (= src_reg_33_27 src_reg_33_27)
       (= src_reg_33_28 src_reg_33_28)
       (= src_reg_33_29 src_reg_33_29)
       (= src_reg_33_30 src_reg_33_30)
       (= src_reg_33_31 src_reg_33_31)
       (= src_reg_33_32 src_reg_33_32)
       (= src_reg_33_33 src_reg_33_33)
       (= src_reg_33_34 src_reg_33_34)
       (= src_reg_33_35 src_reg_33_35)
       (= other_branch_dst_reg_33_36 other_branch_dst_reg_33_36)
       (= other_branch_dst_reg_33_37 other_branch_dst_reg_33_37)
       (= other_branch_dst_reg_33_38 other_branch_dst_reg_33_38)
       (= other_branch_dst_reg_33_39 other_branch_dst_reg_33_39)
       (= other_branch_dst_reg_33_40 other_branch_dst_reg_33_40)
       (= other_branch_dst_reg_33_41 other_branch_dst_reg_33_41)
       (= other_branch_dst_reg_33_42 other_branch_dst_reg_33_42)
       (= other_branch_dst_reg_33_43 other_branch_dst_reg_33_43)
       (= other_branch_dst_reg_33_44 other_branch_dst_reg_33_44)
       (= other_branch_dst_reg_33_45 other_branch_dst_reg_33_45)
       (= other_branch_dst_reg_33_46 other_branch_dst_reg_33_46)
       (= other_branch_dst_reg_33_47 other_branch_dst_reg_33_47)
       (= other_branch_dst_reg_33_48 other_branch_dst_reg_33_48)
       (= other_branch_dst_reg_33_49 other_branch_dst_reg_33_49)
       (= other_branch_dst_reg_33_50 other_branch_dst_reg_33_50)
       (= other_branch_dst_reg_33_51 other_branch_dst_reg_33_51)
       (= other_branch_dst_reg_33_52 other_branch_dst_reg_33_52)
       (= other_branch_dst_reg_33_53 other_branch_dst_reg_33_53)
       (= other_branch_src_reg_33_54 other_branch_src_reg_33_54)
       (= other_branch_src_reg_33_55 other_branch_src_reg_33_55)
       (= other_branch_src_reg_33_56 other_branch_src_reg_33_56)
       (= other_branch_src_reg_33_57 other_branch_src_reg_33_57)
       (= other_branch_src_reg_33_58 other_branch_src_reg_33_58)
       (= other_branch_src_reg_33_59 other_branch_src_reg_33_59)
       (= other_branch_src_reg_33_60 other_branch_src_reg_33_60)
       (= other_branch_src_reg_33_61 other_branch_src_reg_33_61)
       (= other_branch_src_reg_33_62 other_branch_src_reg_33_62)
       (= other_branch_src_reg_33_63 other_branch_src_reg_33_63)
       (= other_branch_src_reg_33_64 other_branch_src_reg_33_64)
       (= other_branch_src_reg_33_65 other_branch_src_reg_33_65)
       (= other_branch_src_reg_33_66 other_branch_src_reg_33_66)
       (= other_branch_src_reg_33_67 other_branch_src_reg_33_67)
       (= other_branch_src_reg_33_68 other_branch_src_reg_33_68)
       (= other_branch_src_reg_33_69 other_branch_src_reg_33_69)
       (= other_branch_src_reg_33_70 other_branch_src_reg_33_70)
       (= other_branch_src_reg_33_71 other_branch_src_reg_33_71)
       (= #x00000001 i.i_33_74)
       (= dst_reg_33_2 i21.i_33_75)
       (= dst_reg_33_3 i22.i_33_76)
       (= dst_reg_33_4 i23.i_33_77)
       (= dst_reg_33_5 i24.i_33_78)
       (= dst_reg_33_6 i25.i_33_79)
       (= dst_reg_33_7 i26.i_33_80)
       (= dst_reg_33_8 i27.i_33_81)
       (= dst_reg_33_9 i28.i_33_82)
       (= dst_reg_33_10 i29.i_33_83)
       (= dst_reg_33_11 i30.i_33_84)
       (= #x00000001 i.i2_33_85)
       (= src_reg_33_20 i21.i5_33_86)
       (= src_reg_33_21 i22.i8_33_87)
       (= src_reg_33_22 i23.i11_33_88)
       (= src_reg_33_23 i24.i14_33_89)
       (= src_reg_33_24 i25.i17_33_90)
       (= src_reg_33_25 i26.i20_33_91)
       (= src_reg_33_26 i27.i23_33_92)
       (= src_reg_33_27 i28.i26_33_93)
       (= src_reg_33_28 i29.i29_33_94)
       (= src_reg_33_29 i30.i32_33_95)
       (= dst_reg_33_4 i137.i.i_33_96)
       (= dst_reg_33_5 i139.i.i_33_97)
       (= src_reg_33_22 i145.i.i_33_98)
       (= src_reg_33_23 i147.i.i_33_99)
       (ite (bvsge i137.i.i_33_96 i147.i.i_33_99)
            (= cmp241.not.i.i_33_100 #b1)
            (= cmp241.not.i.i_33_100 #b0))
       (ite (bvslt i139.i.i_33_97 i145.i.i_33_98)
            (= cmp245.i.i_33_101 #b1)
            (= cmp245.i.i_33_101 #b0))
       (ite (= cmp241.not.i.i_33_100 #b1)
            (= narrow_33_103 #b1)
            (= narrow_33_103 cmp245.i.i_33_101)))))))

;{"dst_reg":["dst_reg_33_0","dst_reg_33_1",[""],["dst_reg_33_2","dst_reg_33_3"],"dst_reg_33_4","dst_reg_33_5","dst_reg_33_6","dst_reg_33_7","dst_reg_33_8","dst_reg_33_9","dst_reg_33_10","dst_reg_33_11","dst_reg_33_12","dst_reg_33_13","","","dst_reg_33_14","dst_reg_33_15","dst_reg_33_16"],"other_branch_dst_reg":["other_branch_dst_reg_33_36","other_branch_dst_reg_33_37",[""],["other_branch_dst_reg_33_38","other_branch_dst_reg_33_39"],"other_branch_dst_reg_33_40","other_branch_dst_reg_33_41","other_branch_dst_reg_33_42","other_branch_dst_reg_33_43","other_branch_dst_reg_33_44","other_branch_dst_reg_33_45","other_branch_dst_reg_33_46","other_branch_dst_reg_33_47","other_branch_dst_reg_33_48","other_branch_dst_reg_33_49","","","other_branch_dst_reg_33_50","other_branch_dst_reg_33_51","other_branch_dst_reg_33_52"],"other_branch_src_reg":["other_branch_src_reg_33_54","other_branch_src_reg_33_55",[""],["other_branch_src_reg_33_56","other_branch_src_reg_33_57"],"other_branch_src_reg_33_58","other_branch_src_reg_33_59","other_branch_src_reg_33_60","other_branch_src_reg_33_61","other_branch_src_reg_33_62","other_branch_src_reg_33_63","other_branch_src_reg_33_64","other_branch_src_reg_33_65","other_branch_src_reg_33_66","other_branch_src_reg_33_67","","","other_branch_src_reg_33_68","other_branch_src_reg_33_69","other_branch_src_reg_33_70"],"src_reg":["src_reg_33_18","src_reg_33_19",[""],["src_reg_33_20","src_reg_33_21"],"src_reg_33_22","src_reg_33_23","src_reg_33_24","src_reg_33_25","src_reg_33_26","src_reg_33_27","src_reg_33_28","src_reg_33_29","src_reg_33_30","src_reg_33_31","","","src_reg_33_32","src_reg_33_33","src_reg_33_34"]}
;{"dst_reg":["dst_reg_33_199","dst_reg_33_200",[""],["dst_reg_33_201","dst_reg_33_202"],"dst_reg_33_203","dst_reg_33_204","dst_reg_33_205","dst_reg_33_206","dst_reg_33_207","dst_reg_33_208","dst_reg_33_209","dst_reg_33_210","dst_reg_33_211","dst_reg_33_212","","","dst_reg_33_213","dst_reg_33_214","dst_reg_33_215"],"other_branch_dst_reg":["other_branch_dst_reg_33_235","other_branch_dst_reg_33_236",[""],["other_branch_dst_reg_33_237","other_branch_dst_reg_33_238"],"other_branch_dst_reg_33_239","other_branch_dst_reg_33_240","other_branch_dst_reg_33_241","other_branch_dst_reg_33_242","other_branch_dst_reg_33_243","other_branch_dst_reg_33_244","other_branch_dst_reg_33_245","other_branch_dst_reg_33_246","other_branch_dst_reg_33_247","other_branch_dst_reg_33_248","","","other_branch_dst_reg_33_249","other_branch_dst_reg_33_250","other_branch_dst_reg_33_251"],"other_branch_src_reg":["other_branch_src_reg_33_253","other_branch_src_reg_33_254",[""],["other_branch_src_reg_33_255","other_branch_src_reg_33_256"],"other_branch_src_reg_33_257","other_branch_src_reg_33_258","other_branch_src_reg_33_259","other_branch_src_reg_33_260","other_branch_src_reg_33_261","other_branch_src_reg_33_262","other_branch_src_reg_33_263","other_branch_src_reg_33_264","other_branch_src_reg_33_265","other_branch_src_reg_33_266","","","other_branch_src_reg_33_267","other_branch_src_reg_33_268","other_branch_src_reg_33_269"],"src_reg":["src_reg_33_217","src_reg_33_218",[""],["src_reg_33_219","src_reg_33_220"],"src_reg_33_221","src_reg_33_222","src_reg_33_223","src_reg_33_224","src_reg_33_225","src_reg_33_226","src_reg_33_227","src_reg_33_228","src_reg_33_229","src_reg_33_230","","","src_reg_33_231","src_reg_33_232","src_reg_33_233"]}
